c nIsolatedPIs 12
c maxPI 8
p cnf 38 91
c gate 9 3 6 0
3 -9 0
6 -9 0
-3 -6 9 0
c gate 10 4 5 0
4 -10 0
5 -10 0
-4 -5 10 0
c gate 11 -9 -10 0
-9 -11 0
-10 -11 0
9 10 11 0
c gate 12 9 10 0
9 -12 0
10 -12 0
-9 -10 12 0
c gate 13 -11 -12 0
-11 -13 0
-12 -13 0
11 12 13 0
c gate 14 2 7 0
2 -14 0
7 -14 0
-2 -7 14 0
c gate 15 13 14 0
13 -15 0
14 -15 0
-13 -14 15 0
c gate 16 -13 -14 0
-13 -16 0
-14 -16 0
13 14 16 0
c gate 17 -15 -16 0
-15 -17 0
-16 -17 0
15 16 17 0
c gate 18 3 5 0
3 -18 0
5 -18 0
-3 -5 18 0
c gate 19 2 6 0
2 -19 0
6 -19 0
-2 -6 19 0
c gate 20 18 19 0
18 -20 0
19 -20 0
-18 -19 20 0
c gate 21 -18 -19 0
-18 -21 0
-19 -21 0
18 19 21 0
c gate 22 1 7 0
1 -22 0
7 -22 0
-1 -7 22 0
c gate 23 -21 22 0
-21 -23 0
22 -23 0
21 -22 23 0
c gate 24 -20 -23 0
-20 -24 0
-23 -24 0
20 23 24 0
c gate 25 -17 24 0
-17 -25 0
24 -25 0
17 -24 25 0
c gate 26 17 -24 0
17 -26 0
-24 -26 0
-17 24 26 0
c gate 27 -25 -26 0
-25 -27 0
-26 -27 0
25 26 27 0
c gate 28 1 8 0
1 -28 0
8 -28 0
-1 -8 28 0
c gate 29 -27 -28 0
-27 -29 0
-28 -29 0
27 28 29 0
c gate 30 27 28 0
27 -30 0
28 -30 0
-27 -28 30 0
c gate 31 3 7 0
3 -31 0
7 -31 0
-3 -7 31 0
c gate 32 -3 -7 0
-3 -32 0
-7 -32 0
3 7 32 0
c gate 33 -31 -32 0
-31 -33 0
-32 -33 0
31 32 33 0
c gate 34 1 5 0
1 -34 0
5 -34 0
-1 -5 34 0
c gate 35 19 34 0
19 -35 0
34 -35 0
-19 -34 35 0
c gate 36 -33 35 0
-33 -36 0
35 -36 0
33 -35 36 0
c gate 37 -30 36 0
-30 -37 0
36 -37 0
30 -36 37 0
c gate 38 -29 37 0
-29 -38 0
37 -38 0
29 -37 38 0
c PO
38 0
